objective value:                                12692
t_x_1                                               1 	(obj:25)
t_x_2                                               1 	(obj:5)
t_x_6                                               1 	(obj:16)
t_x_7                                               1 	(obj:15)
t_x_8                                               1 	(obj:21)
t_x_9                                               1 	(obj:26)
t_x_11                                              1 	(obj:50)
t_x_12                                              1 	(obj:60)
t_x_14                                              1 	(obj:13)
t_x_15                                              1 	(obj:42)
t_x_20                                              1 	(obj:19)
t_x_24                                              1 	(obj:5)
t_x_27                                              1 	(obj:41)
t_x_28                                              1 	(obj:29)
t_x_29                                              1 	(obj:10)
t_x_30                                              1 	(obj:8)
t_x_31                                              1 	(obj:39)
t_x_35                                              1 	(obj:1)
t_x_37                                              1 	(obj:20)
t_x_42                                              1 	(obj:3)
t_x_43                                              1 	(obj:27)
t_x_47                                              1 	(obj:15)
t_x_52                                              1 	(obj:29)
t_x_55                                              1 	(obj:25)
t_x_56                                              1 	(obj:75)
t_x_57                                              1 	(obj:2)
t_x_59                                              1 	(obj:20)
t_x_63                                              1 	(obj:7)
t_x_67                                              1 	(obj:7)
t_x_70                                              1 	(obj:5)
t_x_74                                              1 	(obj:12)
t_x_75                                              1 	(obj:12)
t_x_76                                              1 	(obj:23)
t_x_77                                              1 	(obj:0)
t_x_83                                              1 	(obj:39)
t_x_85                                              1 	(obj:26)
t_x_86                                              1 	(obj:45)
t_x_87                                              1 	(obj:44)
t_x_89                                              1 	(obj:18)
t_x_90                                              1 	(obj:34)
t_x_92                                              1 	(obj:37)
t_x_99                                              1 	(obj:0)
t_x_101                                             1 	(obj:30)
t_x_108                                             1 	(obj:6)
t_x_110                                             1 	(obj:30)
t_x_111                                             1 	(obj:15)
t_x_114                                             1 	(obj:28)
t_x_115                                             1 	(obj:0)
t_x_122                                             1 	(obj:31)
t_x_127                                             1 	(obj:2)
t_x_129                                             1 	(obj:30)
t_x_130                                             1 	(obj:61)
t_x_132                                             1 	(obj:28)
t_x_136                                             1 	(obj:2)
t_x_137                                             1 	(obj:6)
t_x_139                                             1 	(obj:3)
t_x_143                                             1 	(obj:26)
t_x_146                                             1 	(obj:15)
t_x_147                                             1 	(obj:3)
t_x_148                                             1 	(obj:26)
t_x_153                                             1 	(obj:19)
t_x_156                                             1 	(obj:24)
t_x_157                                             1 	(obj:9)
t_x_158                                             1 	(obj:26)
t_x_165                                             1 	(obj:40)
t_x_166                                             1 	(obj:36)
t_x_172                                             1 	(obj:5)
t_x_173                                             1 	(obj:36)
t_x_181                                             1 	(obj:3)
t_x_183                                             1 	(obj:4)
t_x_184                                             1 	(obj:25)
t_x_188                                             1 	(obj:28)
t_x_193                                             1 	(obj:17)
t_x_197                                             1 	(obj:23)
t_x_199                                             1 	(obj:17)
t_x_203                                             1 	(obj:5)
t_x_211                                             1 	(obj:32)
t_x_213                                             1 	(obj:28)
t_x_216                                             1 	(obj:17)
t_x_217                                             1 	(obj:21)
t_x_226                                             1 	(obj:11)
t_x_227                                             1 	(obj:28)
t_x_232                                             1 	(obj:28)
t_x_236                                             1 	(obj:28)
t_x_238                                             1 	(obj:20)
t_x_241                                             1 	(obj:32)
t_x_242                                             1 	(obj:10)
t_x_245                                             1 	(obj:6)
t_x_249                                             1 	(obj:2)
t_x_250                                             1 	(obj:7)
t_x_256                                             1 	(obj:3)
t_x_261                                             1 	(obj:48)
t_x_262                                             1 	(obj:63)
t_x_268                                             1 	(obj:15)
t_x_269                                             1 	(obj:24)
t_x_271                                             1 	(obj:18)
t_x_273                                             1 	(obj:21)
t_x_275                                             1 	(obj:14)
t_x_276                                             1 	(obj:4)
t_x_277                                             1 	(obj:12)
t_x_279                                             1 	(obj:5)
t_x_282                                             1 	(obj:8)
t_x_285                                             1 	(obj:4)
t_x_286                                             1 	(obj:37)
t_x_287                                             1 	(obj:9)
t_x_291                                             1 	(obj:23)
t_x_295                                             1 	(obj:8)
t_x_297                                             1 	(obj:2)
t_x_299                                             1 	(obj:44)
t_x_302                                             1 	(obj:15)
t_x_304                                             1 	(obj:27)
t_x_306                                             1 	(obj:45)
t_x_307                                             1 	(obj:8)
t_x_311                                             1 	(obj:12)
t_x_312                                             1 	(obj:0)
t_x_319                                             1 	(obj:16)
t_x_322                                             1 	(obj:54)
t_x_325                                             1 	(obj:30)
t_x_328                                             1 	(obj:7)
t_x_329                                             1 	(obj:10)
t_x_333                                             1 	(obj:15)
t_x_334                                             1 	(obj:44)
t_x_346                                             1 	(obj:0)
t_x_348                                             1 	(obj:50)
t_x_351                                             1 	(obj:21)
t_x_352                                             1 	(obj:38)
t_x_355                                             1 	(obj:10)
t_x_358                                             1 	(obj:17)
t_x_360                                             1 	(obj:29)
t_x_364                                             1 	(obj:26)
t_x_367                                             1 	(obj:12)
t_x_370                                             1 	(obj:1)
t_x_373                                             1 	(obj:12)
t_x_375                                             1 	(obj:26)
t_x_379                                             1 	(obj:23)
t_x_384                                             1 	(obj:16)
t_x_389                                             1 	(obj:6)
t_x_390                                             1 	(obj:20)
t_x_392                                             1 	(obj:12)
t_x_403                                             1 	(obj:46)
t_x_405                                             1 	(obj:8)
t_x_413                                             1 	(obj:35)
t_x_414                                             1 	(obj:42)
t_x_418                                             1 	(obj:5)
t_x_421                                             1 	(obj:12)
t_x_423                                             1 	(obj:7)
t_x_425                                             1 	(obj:13)
t_x_431                                             1 	(obj:12)
t_x_445                                             1 	(obj:4)
t_x_447                                             1 	(obj:14)
t_x_449                                             1 	(obj:13)
t_x_450                                             1 	(obj:54)
t_x_453                                             1 	(obj:11)
t_x_454                                             1 	(obj:1)
t_x_455                                             1 	(obj:37)
t_x_460                                             1 	(obj:0)
t_x_464                                             1 	(obj:5)
t_x_465                                             1 	(obj:31)
t_x_469                                             1 	(obj:23)
t_x_478                                             1 	(obj:22)
t_x_480                                             1 	(obj:3)
t_x_482                                             1 	(obj:18)
t_x_484                                             1 	(obj:31)
t_x_485                                             1 	(obj:74)
t_x_489                                             1 	(obj:42)
t_x_490                                             1 	(obj:30)
t_x_491                                             1 	(obj:7)
t_x_498                                             1 	(obj:10)
t_x_502                                             1 	(obj:14)
t_x_503                                             1 	(obj:16)
t_x_506                                             1 	(obj:30)
t_x_509                                             1 	(obj:41)
t_x_521                                             1 	(obj:18)
t_x_522                                             1 	(obj:49)
t_x_523                                             1 	(obj:2)
t_x_525                                             1 	(obj:8)
t_x_529                                             1 	(obj:42)
t_x_531                                             1 	(obj:49)
t_x_538                                             1 	(obj:10)
t_x_546                                             1 	(obj:9)
t_x_548                                             1 	(obj:31)
t_x_549                                             1 	(obj:14)
t_x_550                                             1 	(obj:10)
t_x_553                                             1 	(obj:14)
t_x_559                                             1 	(obj:6)
t_x_561                                             1 	(obj:52)
t_x_563                                             1 	(obj:38)
t_x_564                                             1 	(obj:44)
t_x_571                                             1 	(obj:16)
t_x_573                                             1 	(obj:10)
t_x_579                                             1 	(obj:70)
t_x_580                                             1 	(obj:14)
t_x_585                                             1 	(obj:18)
t_x_589                                             1 	(obj:11)
t_x_594                                             1 	(obj:66)
t_x_597                                             1 	(obj:21)
t_x_598                                             1 	(obj:18)
t_x_603                                             1 	(obj:24)
t_x_606                                             1 	(obj:17)
t_x_613                                             1 	(obj:6)
t_x_619                                             1 	(obj:16)
t_x_621                                             1 	(obj:38)
t_x_623                                             1 	(obj:26)
t_x_626                                             1 	(obj:50)
t_x_627                                             1 	(obj:2)
t_x_633                                             1 	(obj:9)
t_x_635                                             1 	(obj:32)
t_x_637                                             1 	(obj:41)
t_x_638                                             1 	(obj:22)
t_x_639                                             1 	(obj:26)
t_x_653                                             1 	(obj:8)
t_x_654                                             1 	(obj:2)
t_x_655                                             1 	(obj:20)
t_x_657                                             1 	(obj:28)
t_x_659                                             1 	(obj:38)
t_x_660                                             1 	(obj:7)
t_x_661                                             1 	(obj:45)
t_x_665                                             1 	(obj:31)
t_x_667                                             1 	(obj:23)
t_x_669                                             1 	(obj:25)
t_x_671                                             1 	(obj:19)
t_x_677                                             1 	(obj:9)
t_x_679                                             1 	(obj:28)
t_x_680                                             1 	(obj:0)
t_x_681                                             1 	(obj:11)
t_x_684                                             1 	(obj:13)
t_x_688                                             1 	(obj:21)
t_x_690                                             1 	(obj:19)
t_x_698                                             1 	(obj:5)
t_x_699                                             1 	(obj:34)
t_x_700                                             1 	(obj:18)
t_x_701                                             1 	(obj:18)
t_x_702                                             1 	(obj:7)
t_x_703                                             1 	(obj:46)
t_x_704                                             1 	(obj:24)
t_x_705                                             1 	(obj:22)
t_x_708                                             1 	(obj:20)
t_x_711                                             1 	(obj:30)
t_x_713                                             1 	(obj:29)
t_x_716                                             1 	(obj:39)
t_x_720                                             1 	(obj:3)
t_x_723                                             1 	(obj:28)
t_x_728                                             1 	(obj:0)
t_x_730                                             1 	(obj:51)
t_x_731                                             1 	(obj:5)
t_x_733                                             1 	(obj:59)
t_x_739                                             1 	(obj:16)
t_x_744                                             1 	(obj:29)
t_x_746                                             1 	(obj:22)
t_x_750                                             1 	(obj:7)
t_x_751                                             1 	(obj:5)
t_x_753                                             1 	(obj:8)
t_x_757                                             1 	(obj:5)
t_x_762                                             1 	(obj:21)
t_x_763                                             1 	(obj:11)
t_x_766                                             1 	(obj:10)
t_x_768                                             1 	(obj:30)
t_x_780                                             1 	(obj:7)
t_x_784                                             1 	(obj:22)
t_x_785                                             1 	(obj:2)
t_x_789                                             1 	(obj:7)
t_x_790                                             1 	(obj:3)
t_x_793                                             1 	(obj:3)
t_x_801                                             1 	(obj:3)
t_x_802                                             1 	(obj:57)
t_x_804                                             1 	(obj:39)
t_x_805                                             1 	(obj:54)
t_x_811                                             1 	(obj:19)
t_x_812                                             1 	(obj:27)
t_x_816                                             1 	(obj:32)
t_x_817                                             1 	(obj:6)
t_x_821                                             1 	(obj:33)
t_x_822                                             1 	(obj:42)
t_x_825                                             1 	(obj:1)
t_x_827                                             1 	(obj:5)
t_x_833                                             1 	(obj:19)
t_x_834                                             1 	(obj:34)
t_x_835                                             1 	(obj:73)
t_x_836                                             1 	(obj:26)
t_x_839                                             1 	(obj:10)
t_x_844                                             1 	(obj:18)
t_x_845                                             1 	(obj:10)
t_x_846                                             1 	(obj:26)
t_x_848                                             1 	(obj:28)
t_x_850                                             1 	(obj:25)
t_x_854                                             1 	(obj:4)
t_x_856                                             1 	(obj:3)
t_x_858                                             1 	(obj:2)
t_x_860                                             1 	(obj:6)
t_x_864                                             1 	(obj:11)
t_x_873                                             1 	(obj:26)
t_x_877                                             1 	(obj:48)
t_x_879                                             1 	(obj:19)
t_x_884                                             1 	(obj:31)
t_x_887                                             1 	(obj:65)
t_x_892                                             1 	(obj:4)
t_x_896                                             1 	(obj:21)
t_x_897                                             1 	(obj:83)
t_x_899                                             1 	(obj:38)
t_x_901                                             1 	(obj:39)
t_x_903                                             1 	(obj:13)
t_x_905                                             1 	(obj:85)
t_x_907                                             1 	(obj:25)
t_x_911                                             1 	(obj:6)
t_x_912                                             1 	(obj:3)
t_x_914                                             1 	(obj:29)
t_x_919                                             1 	(obj:8)
t_x_920                                             1 	(obj:0)
t_x_924                                             1 	(obj:4)
t_x_927                                             1 	(obj:23)
t_x_929                                             1 	(obj:1)
t_x_930                                             1 	(obj:37)
t_x_931                                             1 	(obj:1)
t_x_935                                             1 	(obj:18)
t_x_936                                             1 	(obj:5)
t_x_946                                             1 	(obj:58)
t_x_949                                             1 	(obj:9)
t_x_952                                             1 	(obj:19)
t_x_958                                             1 	(obj:23)
t_x_959                                             1 	(obj:37)
t_x_960                                             1 	(obj:17)
t_x_963                                             1 	(obj:0)
t_x_971                                             1 	(obj:28)
t_x_974                                             1 	(obj:4)
t_x_977                                             1 	(obj:8)
t_x_978                                             1 	(obj:10)
t_x_982                                             1 	(obj:34)
t_x_992                                             1 	(obj:11)
t_x_993                                             1 	(obj:32)
t_x_1004                                            1 	(obj:9)
t_x_1005                                            1 	(obj:34)
t_x_1006                                            1 	(obj:1)
t_x_1007                                            1 	(obj:1)
t_x_1010                                            1 	(obj:16)
t_x_1015                                            1 	(obj:40)
t_x_1018                                            1 	(obj:23)
t_x_1019                                            1 	(obj:28)
t_x_1021                                            1 	(obj:28)
t_x_1022                                            1 	(obj:16)
t_x_1023                                            1 	(obj:19)
t_x_1028                                            1 	(obj:6)
t_x_1030                                            1 	(obj:14)
t_x_1038                                            1 	(obj:7)
t_x_1044                                            1 	(obj:6)
t_x_1051                                            1 	(obj:58)
t_x_1058                                            1 	(obj:1)
t_x_1063                                            1 	(obj:16)
t_x_1072                                            1 	(obj:19)
t_x_1075                                            1 	(obj:34)
t_x_1078                                            1 	(obj:4)
t_x_1079                                            1 	(obj:0)
t_x_1082                                            1 	(obj:3)
t_x_1086                                            1 	(obj:32)
t_x_1087                                            1 	(obj:0)
t_x_1090                                            1 	(obj:25)
t_x_1091                                            1 	(obj:2)
t_x_1093                                            1 	(obj:25)
t_x_1097                                            1 	(obj:39)
t_x_1103                                            1 	(obj:3)
t_x_1104                                            1 	(obj:39)
t_x_1105                                            1 	(obj:16)
t_x_1110                                            1 	(obj:14)
t_x_1114                                            1 	(obj:11)
t_x_1121                                            1 	(obj:6)
t_x_1123                                            1 	(obj:31)
t_x_1126                                            1 	(obj:6)
t_x_1131                                            1 	(obj:0)
t_x_1133                                            1 	(obj:8)
t_x_1134                                            1 	(obj:4)
t_x_1143                                            1 	(obj:26)
t_x_1144                                            1 	(obj:7)
t_x_1145                                            1 	(obj:2)
t_x_1147                                            1 	(obj:16)
t_x_1150                                            1 	(obj:6)
t_x_1152                                            1 	(obj:12)
t_x_1153                                            1 	(obj:9)
t_x_1158                                            1 	(obj:11)
t_x_1159                                            1 	(obj:11)
t_x_1161                                            1 	(obj:46)
t_x_1164                                            1 	(obj:8)
t_x_1166                                            1 	(obj:5)
t_x_1169                                            1 	(obj:10)
t_x_1170                                            1 	(obj:22)
t_x_1177                                            1 	(obj:1)
t_x_1178                                            1 	(obj:0)
t_x_1179                                            1 	(obj:64)
t_x_1182                                            1 	(obj:20)
t_x_1188                                            1 	(obj:1)
t_x_1193                                            1 	(obj:3)
t_x_1201                                            1 	(obj:45)
t_x_1203                                            1 	(obj:1)
t_x_1204                                            1 	(obj:41)
t_x_1205                                            1 	(obj:19)
t_x_1212                                            1 	(obj:33)
t_x_1214                                            1 	(obj:4)
t_x_1215                                            1 	(obj:30)
t_x_1220                                            1 	(obj:32)
t_x_1226                                            1 	(obj:19)
t_x_1228                                            1 	(obj:53)
t_x_1229                                            1 	(obj:24)
t_x_1232                                            1 	(obj:5)
t_x_1234                                            1 	(obj:12)
t_x_1236                                            1 	(obj:42)
t_x_1239                                            1 	(obj:12)
t_x_1245                                            1 	(obj:2)
t_x_1246                                            1 	(obj:29)
t_x_1247                                            1 	(obj:24)
t_x_1252                                            1 	(obj:52)
t_x_1254                                            1 	(obj:2)
t_x_1259                                            1 	(obj:20)
t_x_1261                                            1 	(obj:20)
t_x_1266                                            1 	(obj:0)
t_x_1267                                            1 	(obj:5)
t_x_1270                                            1 	(obj:24)
t_x_1273                                            1 	(obj:41)
t_x_1275                                            1 	(obj:35)
t_x_1280                                            1 	(obj:20)
t_x_1284                                            1 	(obj:21)
t_x_1287                                            1 	(obj:38)
t_x_1288                                            1 	(obj:39)
t_x_1291                                            1 	(obj:23)
t_x_1293                                            1 	(obj:1)
t_x_1294                                            1 	(obj:15)
t_x_1295                                            1 	(obj:68)
t_x_1298                                            1 	(obj:1)
t_x_1303                                            1 	(obj:2)
t_x_1307                                            1 	(obj:15)
t_x_1310                                            1 	(obj:4)
t_x_1312                                            1 	(obj:7)
t_x_1327                                            1 	(obj:38)
t_x_1350                                            1 	(obj:21)
t_x_1351                                            1 	(obj:30)
t_x_1356                                            1 	(obj:24)
t_x_1357                                            1 	(obj:13)
t_x_1359                                            1 	(obj:14)
t_x_1360                                            1 	(obj:20)
t_x_1361                                            1 	(obj:46)
t_x_1368                                            1 	(obj:5)
t_x_1370                                            1 	(obj:40)
t_x_1372                                            1 	(obj:3)
t_x_1375                                            1 	(obj:32)
t_x_1377                                            1 	(obj:23)
t_x_1379                                            1 	(obj:9)
t_x_1381                                            1 	(obj:32)
t_x_1382                                            1 	(obj:13)
t_x_1386                                            1 	(obj:15)
t_x_1387                                            1 	(obj:16)
t_x_1389                                            1 	(obj:18)
t_x_1391                                            1 	(obj:10)
t_x_1392                                            1 	(obj:1)
t_x_1400                                            1 	(obj:4)
t_x_1401                                            1 	(obj:5)
t_x_1402                                            1 	(obj:35)
t_x_1403                                            1 	(obj:7)
t_x_1412                                            1 	(obj:17)
t_x_1415                                            1 	(obj:58)
t_x_1419                                            1 	(obj:2)
t_x_1423                                            1 	(obj:0)
t_x_1426                                            1 	(obj:19)
t_x_1430                                            1 	(obj:2)
t_x_1433                                            1 	(obj:16)
t_x_1434                                            1 	(obj:22)
t_x_1439                                            1 	(obj:7)
t_x_1441                                            1 	(obj:11)
t_x_1442                                            1 	(obj:32)
t_x_1449                                            1 	(obj:5)
t_x_1451                                            1 	(obj:43)
t_x_1455                                            1 	(obj:20)
t_x_1457                                            1 	(obj:39)
t_x_1459                                            1 	(obj:26)
t_x_1461                                            1 	(obj:2)
t_x_1463                                            1 	(obj:37)
t_x_1466                                            1 	(obj:7)
t_x_1467                                            1 	(obj:31)
t_x_1470                                            1 	(obj:40)
t_x_1473                                            1 	(obj:69)
t_x_1474                                            1 	(obj:4)
t_x_1483                                            1 	(obj:9)
t_x_1486                                            1 	(obj:45)
t_x_1487                                            1 	(obj:17)
t_x_1488                                            1 	(obj:45)
t_x_1492                                            1 	(obj:36)
t_x_1505                                            1 	(obj:6)
t_x_1508                                            1 	(obj:5)
t_x_1509                                            1 	(obj:16)
t_x_1510                                            1 	(obj:0)
t_x_1512                                            1 	(obj:42)
t_x_1514                                            1 	(obj:1)
t_x_1517                                            1 	(obj:0)
t_x_1521                                            1 	(obj:24)
t_x_1523                                            1 	(obj:29)
t_x_1531                                            1 	(obj:0)
t_x_1532                                            1 	(obj:23)
t_x_1535                                            1 	(obj:14)
t_x_1536                                            1 	(obj:25)
t_x_1543                                            1 	(obj:12)
t_x_1544                                            1 	(obj:43)
t_x_1545                                            1 	(obj:16)
t_x_1548                                            1 	(obj:10)
t_x_1549                                            1 	(obj:7)
t_x_1551                                            1 	(obj:25)
t_x_1559                                            1 	(obj:28)
t_x_1565                                            1 	(obj:20)
t_x_1573                                            1 	(obj:18)
t_x_1574                                            1 	(obj:47)
t_x_1578                                            1 	(obj:4)
t_x_1584                                            1 	(obj:11)
t_x_1585                                            1 	(obj:25)
t_x_1587                                            1 	(obj:12)
t_x_1590                                            1 	(obj:0)
t_x_1591                                            1 	(obj:40)
t_x_1594                                            1 	(obj:7)
t_x_1596                                            1 	(obj:36)
t_x_1599                                            1 	(obj:22)
t_x_1603                                            1 	(obj:48)
t_x_1605                                            1 	(obj:10)
t_x_1606                                            1 	(obj:59)
t_x_1611                                            1 	(obj:22)
t_x_1619                                            1 	(obj:64)
t_x_1620                                            1 	(obj:14)
t_x_1625                                            1 	(obj:28)
t_x_1626                                            1 	(obj:26)
t_x_1629                                            1 	(obj:18)
t_x_1630                                            1 	(obj:8)
t_x_1633                                            1 	(obj:12)
t_x_1635                                            1 	(obj:6)
t_x_1640                                            1 	(obj:0)
t_x_1644                                            1 	(obj:23)
t_x_1646                                            1 	(obj:34)
t_x_1651                                            1 	(obj:19)
t_x_1658                                            1 	(obj:54)
t_x_1666                                            1 	(obj:41)
t_x_1667                                            1 	(obj:8)
t_x_1668                                            1 	(obj:4)
t_x_1671                                            1 	(obj:5)
t_x_1681                                            1 	(obj:20)
t_x_1682                                            1 	(obj:1)
t_x_1684                                            1 	(obj:10)
t_x_1691                                            1 	(obj:10)
t_x_1702                                            1 	(obj:25)
t_x_1706                                            1 	(obj:24)
t_x_1709                                            1 	(obj:25)
t_x_1726                                            1 	(obj:58)
t_x_1728                                            1 	(obj:5)
t_x_1732                                            1 	(obj:8)
t_x_1738                                            1 	(obj:8)
t_x_1739                                            1 	(obj:17)
t_x_1741                                            1 	(obj:37)
t_x_1744                                            1 	(obj:13)
t_x_1748                                            1 	(obj:13)
t_x_1754                                            1 	(obj:1)
t_x_1755                                            1 	(obj:14)
t_x_1760                                            1 	(obj:32)
t_x_1767                                            1 	(obj:9)
t_x_1770                                            1 	(obj:28)
t_x_1783                                            1 	(obj:12)
t_x_1784                                            1 	(obj:7)
t_x_1786                                            1 	(obj:0)
t_x_1791                                            1 	(obj:10)
t_x_1792                                            1 	(obj:19)
t_x_1794                                            1 	(obj:0)
t_x_1805                                            1 	(obj:4)
t_x_1808                                            1 	(obj:39)
t_x_1809                                            1 	(obj:13)
t_x_1817                                            1 	(obj:2)
t_x_1820                                            1 	(obj:19)
t_x_1821                                            1 	(obj:49)
t_x_1826                                            1 	(obj:4)
t_x_1838                                            1 	(obj:16)
t_x_1839                                            1 	(obj:9)
t_x_1841                                            1 	(obj:26)
t_x_1847                                            1 	(obj:24)
t_x_1853                                            1 	(obj:7)
t_x_1855                                            1 	(obj:82)
t_x_1856                                            1 	(obj:39)
t_x_1858                                            1 	(obj:46)
t_x_1863                                            1 	(obj:10)
t_x_1866                                            1 	(obj:33)
t_x_1867                                            1 	(obj:46)
t_x_1869                                            1 	(obj:42)
t_x_1872                                            1 	(obj:23)
t_x_1877                                            1 	(obj:36)
t_x_1878                                            1 	(obj:10)
t_x_1881                                            1 	(obj:44)
t_x_1882                                            1 	(obj:28)
t_x_1884                                            1 	(obj:11)
t_x_1886                                            1 	(obj:24)
t_x_1888                                            1 	(obj:0)
t_x_1889                                            1 	(obj:39)
t_x_1896                                            1 	(obj:96)
t_x_1900                                            1 	(obj:29)
t_x_1903                                            1 	(obj:23)
t_x_1910                                            1 	(obj:24)
t_x_1911                                            1 	(obj:5)
t_x_1922                                            1 	(obj:9)
t_x_1925                                            1 	(obj:8)
t_x_1927                                            1 	(obj:10)
t_x_1932                                            1 	(obj:6)
t_x_1937                                            1 	(obj:10)
t_x_1938                                            1 	(obj:17)
t_x_1941                                            1 	(obj:8)
t_x_1945                                            1 	(obj:8)
t_x_1946                                            1 	(obj:67)
t_x_1948                                            1 	(obj:3)
t_x_1957                                            1 	(obj:45)
t_x_1970                                            1 	(obj:44)
t_x_1971                                            1 	(obj:15)
t_x_1972                                            1 	(obj:33)
t_x_1975                                            1 	(obj:12)
t_x_1980                                            1 	(obj:12)
t_x_1983                                            1 	(obj:1)
t_x_1985                                            1 	(obj:7)
t_x_1989                                            1 	(obj:16)
t_x_1992                                            1 	(obj:12)
